\ This file was automatically generated by Zimpl
\ param m := read DATAFILE as "1n" use 1;
\ do print "agents: ",m;
\ param n := read DATAFILE as "2n" use 1;
\ do print "jobs: ", n;
\ set M := {1..m};
\ set N := {1..n};
\ param l:=m*n;
\ do print "l=", l;
\ param w[M * N]:=read DATAFILE as "n+" skip 1 use l;
\ param p[M * N]:= read DATAFILE as "n+" skip (m+1) use l;
\ param c[M]:= read DATAFILE as "n+" skip (m+m+1) use m;
\ var x[M * N] binary;
\ maximize profit:  sum <i> in M : sum <j> in N: w[i,j] * x[i,j];
\ subto m_job:   forall <j> in N: sum <i> in M: x[i,j] == 1;
\ subto b_capa:  forall <i> in M: sum <j> in N: p[i,j]*x[i,j] <= c[i];
\Problem name: /opt/instances/lukas/problems/gap/gap-max.zpl
Maximize
 profit:  +24 x#1#1 +19 x#1#2 +23 x#1#3 +23 x#1#4 +24 x#1#5 +22 x#1#6
  +23 x#1#7 +25 x#1#8 +20 x#1#9 +17 x#1#10 +16 x#1#11 +19 x#1#12
  +21 x#1#13 +23 x#1#14 +16 x#1#15 +17 x#1#16 +18 x#1#17 +18 x#1#18
  +20 x#1#19 +21 x#1#20 +21 x#1#21 +21 x#1#22 +20 x#1#23 +19 x#1#24
  +20 x#1#25 +18 x#1#26 +24 x#1#27 +22 x#1#28 +22 x#1#29 +18 x#1#30
  +22 x#1#31 +19 x#1#32 +18 x#1#33 +16 x#1#34 +19 x#1#35 +18 x#1#36
  +25 x#1#37 +18 x#1#38 +18 x#1#39 +19 x#1#40 +20 x#1#41 +21 x#1#42
  +22 x#1#43 +18 x#1#44 +20 x#1#45 +18 x#1#46 +20 x#1#47 +25 x#1#48
  +18 x#2#1 +21 x#2#2 +16 x#2#3 +19 x#2#4 +18 x#2#5 +18 x#2#6
  +23 x#2#7 +19 x#2#8 +17 x#2#9 +20 x#2#10 +22 x#2#11 +20 x#2#12
  +25 x#2#13 +22 x#2#14 +25 x#2#15 +17 x#2#16 +18 x#2#17 +22 x#2#18
  +20 x#2#19 +18 x#2#20 +21 x#2#21 +22 x#2#22 +23 x#2#23 +23 x#2#24
  +17 x#2#25 +24 x#2#26 +16 x#2#27 +22 x#2#28 +25 x#2#29 +25 x#2#30
  +23 x#2#31 +22 x#2#32 +22 x#2#33 +23 x#2#34 +20 x#2#35 +20 x#2#36
  +25 x#2#37 +21 x#2#38 +15 x#2#39 +15 x#2#40 +25 x#2#41 +22 x#2#42
  +24 x#2#43 +24 x#2#44 +23 x#2#45 +22 x#2#46 +25 x#2#47 +17 x#2#48
  +20 x#3#1 +17 x#3#2 +21 x#3#3 +22 x#3#4 +22 x#3#5 +16 x#3#6
  +22 x#3#7 +24 x#3#8 +25 x#3#9 +15 x#3#10 +22 x#3#11 +18 x#3#12
  +25 x#3#13 +23 x#3#14 +23 x#3#15 +15 x#3#16 +21 x#3#17 +23 x#3#18
  +18 x#3#19 +22 x#3#20 +19 x#3#21 +20 x#3#22 +17 x#3#23 +22 x#3#24
  +15 x#3#25 +16 x#3#26 +19 x#3#27 +20 x#3#28 +19 x#3#29 +21 x#3#30
  +19 x#3#31 +18 x#3#32 +24 x#3#33 +24 x#3#34 +25 x#3#35 +16 x#3#36
  +15 x#3#37 +21 x#3#38 +15 x#3#39 +23 x#3#40 +15 x#3#41 +17 x#3#42
  +16 x#3#43 +24 x#3#44 +16 x#3#45 +16 x#3#46 +25 x#3#47 +25 x#3#48
  +18 x#4#1 +19 x#4#2 +17 x#4#3 +23 x#4#4 +22 x#4#5 +23 x#4#6
  +22 x#4#7 +24 x#4#8 +24 x#4#9 +15 x#4#10 +20 x#4#11 +16 x#4#12
  +20 x#4#13 +18 x#4#14 +17 x#4#15 +18 x#4#16 +20 x#4#17 +19 x#4#18
  +19 x#4#19 +24 x#4#20 +22 x#4#21 +22 x#4#22 +24 x#4#23 +22 x#4#24
  +16 x#4#25 +17 x#4#26 +19 x#4#27 +19 x#4#28 +15 x#4#29 +22 x#4#30
  +17 x#4#31 +18 x#4#32 +25 x#4#33 +20 x#4#34 +18 x#4#35 +17 x#4#36
  +17 x#4#37 +20 x#4#38 +16 x#4#39 +24 x#4#40 +19 x#4#41 +19 x#4#42
  +15 x#4#43 +16 x#4#44 +20 x#4#45 +19 x#4#46 +23 x#4#47 +16 x#4#48
  +21 x#5#1 +19 x#5#2 +17 x#5#3 +18 x#5#4 +24 x#5#5 +25 x#5#6
  +25 x#5#7 +24 x#5#8 +22 x#5#9 +20 x#5#10 +23 x#5#11 +23 x#5#12
  +20 x#5#13 +23 x#5#14 +15 x#5#15 +21 x#5#16 +18 x#5#17 +22 x#5#18
  +22 x#5#19 +22 x#5#20 +18 x#5#21 +18 x#5#22 +19 x#5#23 +24 x#5#24
  +22 x#5#25 +24 x#5#26 +21 x#5#27 +24 x#5#28 +25 x#5#29 +15 x#5#30
  +21 x#5#31 +15 x#5#32 +23 x#5#33 +18 x#5#34 +23 x#5#35 +18 x#5#36
  +17 x#5#37 +22 x#5#38 +15 x#5#39 +20 x#5#40 +17 x#5#41 +17 x#5#42
  +18 x#5#43 +15 x#5#44 +17 x#5#45 +17 x#5#46 +23 x#5#47 +16 x#5#48
  +15 x#6#1 +25 x#6#2 +25 x#6#3 +21 x#6#4 +22 x#6#5 +17 x#6#6
  +19 x#6#7 +18 x#6#8 +25 x#6#9 +20 x#6#10 +15 x#6#11 +25 x#6#12
  +16 x#6#13 +20 x#6#14 +18 x#6#15 +16 x#6#16 +17 x#6#17 +18 x#6#18
  +16 x#6#19 +21 x#6#20 +21 x#6#21 +24 x#6#22 +24 x#6#23 +15 x#6#24
  +17 x#6#25 +16 x#6#26 +19 x#6#27 +18 x#6#28 +20 x#6#29 +17 x#6#30
  +18 x#6#31 +15 x#6#32 +18 x#6#33 +16 x#6#34 +20 x#6#35 +16 x#6#36
  +17 x#6#37 +24 x#6#38 +20 x#6#39 +17 x#6#40 +17 x#6#41 +19 x#6#42
  +16 x#6#43 +18 x#6#44 +24 x#6#45 +15 x#6#46 +16 x#6#47 +16 x#6#48
  +15 x#7#1 +24 x#7#2 +23 x#7#3 +24 x#7#4 +25 x#7#5 +23 x#7#6
  +25 x#7#7 +20 x#7#8 +19 x#7#9 +16 x#7#10 +19 x#7#11 +19 x#7#12
  +19 x#7#13 +20 x#7#14 +24 x#7#15 +22 x#7#16 +24 x#7#17 +16 x#7#18
  +15 x#7#19 +17 x#7#20 +25 x#7#21 +23 x#7#22 +23 x#7#23 +16 x#7#24
  +21 x#7#25 +22 x#7#26 +16 x#7#27 +20 x#7#28 +17 x#7#29 +25 x#7#30
  +15 x#7#31 +22 x#7#32 +15 x#7#33 +24 x#7#34 +20 x#7#35 +22 x#7#36
  +19 x#7#37 +23 x#7#38 +23 x#7#39 +16 x#7#40 +23 x#7#41 +15 x#7#42
  +15 x#7#43 +17 x#7#44 +22 x#7#45 +16 x#7#46 +22 x#7#47 +24 x#7#48
  +20 x#8#1 +16 x#8#2 +24 x#8#3 +21 x#8#4 +17 x#8#5 +21 x#8#6
  +25 x#8#7 +16 x#8#8 +25 x#8#9 +21 x#8#10 +24 x#8#11 +15 x#8#12
  +18 x#8#13 +21 x#8#14 +23 x#8#15 +15 x#8#16 +21 x#8#17 +17 x#8#18
  +21 x#8#19 +18 x#8#20 +23 x#8#21 +20 x#8#22 +18 x#8#23 +19 x#8#24
  +16 x#8#25 +16 x#8#26 +21 x#8#27 +18 x#8#28 +22 x#8#29 +24 x#8#30
  +17 x#8#31 +17 x#8#32 +15 x#8#33 +25 x#8#34 +22 x#8#35 +25 x#8#36
  +17 x#8#37 +16 x#8#38 +19 x#8#39 +21 x#8#40 +22 x#8#41 +19 x#8#42
  +23 x#8#43 +21 x#8#44 +15 x#8#45 +17 x#8#46 +15 x#8#47 +25 x#8#48

Subject to
 m_job_;1;:
  + x#8#1 + x#7#1 + x#6#1 + x#5#1 + x#4#1 + x#3#1
  + x#2#1 + x#1#1 = 1
 m_job_;2;:
  + x#8#2 + x#7#2 + x#6#2 + x#5#2 + x#4#2 + x#3#2
  + x#2#2 + x#1#2 = 1
 m_job_;3;:
  + x#8#3 + x#7#3 + x#6#3 + x#5#3 + x#4#3 + x#3#3
  + x#2#3 + x#1#3 = 1
 m_job_;4;:
  + x#8#4 + x#7#4 + x#6#4 + x#5#4 + x#4#4 + x#3#4
  + x#2#4 + x#1#4 = 1
 m_job_;5;:
  + x#8#5 + x#7#5 + x#6#5 + x#5#5 + x#4#5 + x#3#5
  + x#2#5 + x#1#5 = 1
 m_job_;6;:
  + x#8#6 + x#7#6 + x#6#6 + x#5#6 + x#4#6 + x#3#6
  + x#2#6 + x#1#6 = 1
 m_job_;7;:
  + x#8#7 + x#7#7 + x#6#7 + x#5#7 + x#4#7 + x#3#7
  + x#2#7 + x#1#7 = 1
 m_job_;8;:
  + x#8#8 + x#7#8 + x#6#8 + x#5#8 + x#4#8 + x#3#8
  + x#2#8 + x#1#8 = 1
 m_job_;9;:
  + x#8#9 + x#7#9 + x#6#9 + x#5#9 + x#4#9 + x#3#9
  + x#2#9 + x#1#9 = 1
 m_job_;10;:
  + x#8#10 + x#7#10 + x#6#10 + x#5#10 + x#4#10 + x#3#10
  + x#2#10 + x#1#10 = 1
 m_job_;11;:
  + x#8#11 + x#7#11 + x#6#11 + x#5#11 + x#4#11 + x#3#11
  + x#2#11 + x#1#11 = 1
 m_job_;12;:
  + x#8#12 + x#7#12 + x#6#12 + x#5#12 + x#4#12 + x#3#12
  + x#2#12 + x#1#12 = 1
 m_job_;13;:
  + x#8#13 + x#7#13 + x#6#13 + x#5#13 + x#4#13 + x#3#13
  + x#2#13 + x#1#13 = 1
 m_job_;14;:
  + x#8#14 + x#7#14 + x#6#14 + x#5#14 + x#4#14 + x#3#14
  + x#2#14 + x#1#14 = 1
 m_job_;15;:
  + x#8#15 + x#7#15 + x#6#15 + x#5#15 + x#4#15 + x#3#15
  + x#2#15 + x#1#15 = 1
 m_job_;16;:
  + x#8#16 + x#7#16 + x#6#16 + x#5#16 + x#4#16 + x#3#16
  + x#2#16 + x#1#16 = 1
 m_job_;17;:
  + x#8#17 + x#7#17 + x#6#17 + x#5#17 + x#4#17 + x#3#17
  + x#2#17 + x#1#17 = 1
 m_job_;18;:
  + x#8#18 + x#7#18 + x#6#18 + x#5#18 + x#4#18 + x#3#18
  + x#2#18 + x#1#18 = 1
 m_job_;19;:
  + x#8#19 + x#7#19 + x#6#19 + x#5#19 + x#4#19 + x#3#19
  + x#2#19 + x#1#19 = 1
 m_job_;20;:
  + x#8#20 + x#7#20 + x#6#20 + x#5#20 + x#4#20 + x#3#20
  + x#2#20 + x#1#20 = 1
 m_job_;21;:
  + x#8#21 + x#7#21 + x#6#21 + x#5#21 + x#4#21 + x#3#21
  + x#2#21 + x#1#21 = 1
 m_job_;22;:
  + x#8#22 + x#7#22 + x#6#22 + x#5#22 + x#4#22 + x#3#22
  + x#2#22 + x#1#22 = 1
 m_job_;23;:
  + x#8#23 + x#7#23 + x#6#23 + x#5#23 + x#4#23 + x#3#23
  + x#2#23 + x#1#23 = 1
 m_job_;24;:
  + x#8#24 + x#7#24 + x#6#24 + x#5#24 + x#4#24 + x#3#24
  + x#2#24 + x#1#24 = 1
 m_job_;25;:
  + x#8#25 + x#7#25 + x#6#25 + x#5#25 + x#4#25 + x#3#25
  + x#2#25 + x#1#25 = 1
 m_job_;26;:
  + x#8#26 + x#7#26 + x#6#26 + x#5#26 + x#4#26 + x#3#26
  + x#2#26 + x#1#26 = 1
 m_job_;27;:
  + x#8#27 + x#7#27 + x#6#27 + x#5#27 + x#4#27 + x#3#27
  + x#2#27 + x#1#27 = 1
 m_job_;28;:
  + x#8#28 + x#7#28 + x#6#28 + x#5#28 + x#4#28 + x#3#28
  + x#2#28 + x#1#28 = 1
 m_job_;29;:
  + x#8#29 + x#7#29 + x#6#29 + x#5#29 + x#4#29 + x#3#29
  + x#2#29 + x#1#29 = 1
 m_job_;30;:
  + x#8#30 + x#7#30 + x#6#30 + x#5#30 + x#4#30 + x#3#30
  + x#2#30 + x#1#30 = 1
 m_job_;31;:
  + x#8#31 + x#7#31 + x#6#31 + x#5#31 + x#4#31 + x#3#31
  + x#2#31 + x#1#31 = 1
 m_job_;32;:
  + x#8#32 + x#7#32 + x#6#32 + x#5#32 + x#4#32 + x#3#32
  + x#2#32 + x#1#32 = 1
 m_job_;33;:
  + x#8#33 + x#7#33 + x#6#33 + x#5#33 + x#4#33 + x#3#33
  + x#2#33 + x#1#33 = 1
 m_job_;34;:
  + x#8#34 + x#7#34 + x#6#34 + x#5#34 + x#4#34 + x#3#34
  + x#2#34 + x#1#34 = 1
 m_job_;35;:
  + x#8#35 + x#7#35 + x#6#35 + x#5#35 + x#4#35 + x#3#35
  + x#2#35 + x#1#35 = 1
 m_job_;36;:
  + x#8#36 + x#7#36 + x#6#36 + x#5#36 + x#4#36 + x#3#36
  + x#2#36 + x#1#36 = 1
 m_job_;37;:
  + x#8#37 + x#7#37 + x#6#37 + x#5#37 + x#4#37 + x#3#37
  + x#2#37 + x#1#37 = 1
 m_job_;38;:
  + x#8#38 + x#7#38 + x#6#38 + x#5#38 + x#4#38 + x#3#38
  + x#2#38 + x#1#38 = 1
 m_job_;39;:
  + x#8#39 + x#7#39 + x#6#39 + x#5#39 + x#4#39 + x#3#39
  + x#2#39 + x#1#39 = 1
 m_job_;40;:
  + x#8#40 + x#7#40 + x#6#40 + x#5#40 + x#4#40 + x#3#40
  + x#2#40 + x#1#40 = 1
 m_job_;41;:
  + x#8#41 + x#7#41 + x#6#41 + x#5#41 + x#4#41 + x#3#41
  + x#2#41 + x#1#41 = 1
 m_job_;42;:
  + x#8#42 + x#7#42 + x#6#42 + x#5#42 + x#4#42 + x#3#42
  + x#2#42 + x#1#42 = 1
 m_job_;43;:
  + x#8#43 + x#7#43 + x#6#43 + x#5#43 + x#4#43 + x#3#43
  + x#2#43 + x#1#43 = 1
 m_job_;44;:
  + x#8#44 + x#7#44 + x#6#44 + x#5#44 + x#4#44 + x#3#44
  + x#2#44 + x#1#44 = 1
 m_job_;45;:
  + x#8#45 + x#7#45 + x#6#45 + x#5#45 + x#4#45 + x#3#45
  + x#2#45 + x#1#45 = 1
 m_job_;46;:
  + x#8#46 + x#7#46 + x#6#46 + x#5#46 + x#4#46 + x#3#46
  + x#2#46 + x#1#46 = 1
 m_job_;47;:
  + x#8#47 + x#7#47 + x#6#47 + x#5#47 + x#4#47 + x#3#47
  + x#2#47 + x#1#47 = 1
 m_job_;48;:
  + x#8#48 + x#7#48 + x#6#48 + x#5#48 + x#4#48 + x#3#48
  + x#2#48 + x#1#48 = 1
 b_capa_;1;:
  +16 x#1#48 +10 x#1#47 +5 x#1#46 +9 x#1#45 +5 x#1#44 +14 x#1#43
  +5 x#1#42 +16 x#1#41 +5 x#1#40 +7 x#1#39 +5 x#1#38 +16 x#1#37
  +14 x#1#36 +9 x#1#35 +7 x#1#34 +9 x#1#33 +15 x#1#32 +8 x#1#31
  +9 x#1#30 +14 x#1#29 +7 x#1#28 +11 x#1#27 +11 x#1#26 +7 x#1#25
  +9 x#1#24 +5 x#1#23 +13 x#1#22 +5 x#1#21 +6 x#1#20 +8 x#1#19
  +13 x#1#18 +8 x#1#17 +15 x#1#16 +6 x#1#15 +8 x#1#14 +7 x#1#13
  +8 x#1#12 +16 x#1#11 +7 x#1#10 +13 x#1#9 +14 x#1#8 +11 x#1#7
  +8 x#1#6 +5 x#1#5 +15 x#1#4 +7 x#1#3 +6 x#1#2 +16 x#1#1
  <= 46
 b_capa_;2;:
  +5 x#2#48 +15 x#2#47 +7 x#2#46 +14 x#2#45 +15 x#2#44 +7 x#2#43
  +10 x#2#42 +11 x#2#41 +15 x#2#40 +15 x#2#39 +12 x#2#38 +10 x#2#37
  +7 x#2#36 +10 x#2#35 +14 x#2#34 +8 x#2#33 +10 x#2#32 +9 x#2#31
  +9 x#2#30 +11 x#2#29 +10 x#2#28 +13 x#2#27 +5 x#2#26 +10 x#2#25
  +7 x#2#24 +10 x#2#23 +12 x#2#22 +7 x#2#21 +16 x#2#20 +9 x#2#19
  +10 x#2#18 +11 x#2#17 +9 x#2#16 +14 x#2#15 +15 x#2#14 +5 x#2#13
  +8 x#2#12 +16 x#2#11 +13 x#2#10 +6 x#2#9 +14 x#2#8 +16 x#2#7
  +15 x#2#6 +15 x#2#5 +7 x#2#4 +10 x#2#3 +13 x#2#2 +7 x#2#1
  <= 51
 b_capa_;3;:
  +8 x#3#48 +16 x#3#47 +8 x#3#46 +5 x#3#45 +15 x#3#44 +7 x#3#43
  +11 x#3#42 +8 x#3#41 +5 x#3#40 +11 x#3#39 +14 x#3#38 +15 x#3#37
  +8 x#3#36 +8 x#3#35 +11 x#3#34 +13 x#3#33 +5 x#3#32 +5 x#3#31
  +11 x#3#30 +14 x#3#29 +12 x#3#28 +15 x#3#27 +5 x#3#26 +11 x#3#25
  +16 x#3#24 +5 x#3#23 +8 x#3#22 +12 x#3#21 +5 x#3#20 +7 x#3#19
  +9 x#3#18 +7 x#3#17 +10 x#3#16 +10 x#3#15 +6 x#3#14 +13 x#3#13
  +14 x#3#12 +15 x#3#11 +7 x#3#10 +13 x#3#9 +9 x#3#8 +8 x#3#7
  +7 x#3#6 +8 x#3#5 +10 x#3#4 +11 x#3#3 +10 x#3#2 +15 x#3#1
  <= 47
 b_capa_;4;:
  +7 x#4#48 +10 x#4#47 +8 x#4#46 +11 x#4#45 +9 x#4#44 +14 x#4#43
  +14 x#4#42 +14 x#4#41 +5 x#4#40 +5 x#4#39 +10 x#4#38 +7 x#4#37
  +12 x#4#36 +16 x#4#35 +8 x#4#34 +8 x#4#33 +9 x#4#32 +9 x#4#31
  +5 x#4#30 +13 x#4#29 +15 x#4#28 +7 x#4#27 +16 x#4#26 +8 x#4#25
  +13 x#4#24 +13 x#4#23 +7 x#4#22 +16 x#4#21 +15 x#4#20 +6 x#4#19
  +7 x#4#18 +15 x#4#17 +5 x#4#16 +14 x#4#15 +8 x#4#14 +7 x#4#13
  +12 x#4#12 +8 x#4#11 +10 x#4#10 +8 x#4#9 +10 x#4#8 +9 x#4#7
  +6 x#4#6 +14 x#4#5 +7 x#4#4 +15 x#4#3 +11 x#4#2 +8 x#4#1
  <= 48
 b_capa_;5;:
  +8 x#5#48 +15 x#5#47 +5 x#5#46 +8 x#5#45 +15 x#5#44 +7 x#5#43
  +11 x#5#42 +9 x#5#41 +12 x#5#40 +12 x#5#39 +6 x#5#38 +16 x#5#37
  +5 x#5#36 +10 x#5#35 +14 x#5#34 +10 x#5#33 +8 x#5#32 +8 x#5#31
  +8 x#5#30 +7 x#5#29 +5 x#5#28 +15 x#5#27 +5 x#5#26 +15 x#5#25
  +15 x#5#24 +9 x#5#23 +6 x#5#22 +8 x#5#21 +5 x#5#20 +16 x#5#19
  +9 x#5#18 +12 x#5#17 +9 x#5#16 +16 x#5#15 +9 x#5#14 +5 x#5#13
  +11 x#5#12 +5 x#5#11 +7 x#5#10 +5 x#5#9 +16 x#5#8 +16 x#5#7
  +16 x#5#6 +8 x#5#5 +11 x#5#4 +14 x#5#3 +7 x#5#2 +12 x#5#1
  <= 48
 b_capa_;6;:
  +11 x#6#48 +14 x#6#47 +10 x#6#46 +10 x#6#45 +9 x#6#44 +15 x#6#43
  +7 x#6#42 +15 x#6#41 +6 x#6#40 +11 x#6#39 +16 x#6#38 +7 x#6#37
  +14 x#6#36 +7 x#6#35 +11 x#6#34 +12 x#6#33 +9 x#6#32 +12 x#6#31
  +11 x#6#30 +5 x#6#29 +14 x#6#28 +6 x#6#27 +16 x#6#26 +14 x#6#25
  +7 x#6#24 +11 x#6#23 +9 x#6#22 +13 x#6#21 +12 x#6#20 +8 x#6#19
  +13 x#6#18 +7 x#6#17 +6 x#6#16 +6 x#6#15 +14 x#6#14 +6 x#6#13
  +12 x#6#12 +12 x#6#11 +9 x#6#10 +14 x#6#9 +10 x#6#8 +12 x#6#7
  +9 x#6#6 +8 x#6#5 +12 x#6#4 +10 x#6#3 +12 x#6#2 +5 x#6#1
  <= 49
 b_capa_;7;:
  +7 x#7#48 +8 x#7#47 +12 x#7#46 +15 x#7#45 +11 x#7#44 +10 x#7#43
  +5 x#7#42 +14 x#7#41 +12 x#7#40 +15 x#7#39 +5 x#7#38 +13 x#7#37
  +15 x#7#36 +8 x#7#35 +11 x#7#34 +7 x#7#33 +6 x#7#32 +11 x#7#31
  +16 x#7#30 +13 x#7#29 +13 x#7#28 +10 x#7#27 +7 x#7#26 +6 x#7#25
  +14 x#7#24 +5 x#7#23 +15 x#7#22 +5 x#7#21 +16 x#7#20 +9 x#7#19
  +6 x#7#18 +9 x#7#17 +8 x#7#16 +11 x#7#15 +12 x#7#14 +6 x#7#13
  +13 x#7#12 +15 x#7#11 +13 x#7#10 +7 x#7#9 +8 x#7#8 +11 x#7#7
  +8 x#7#6 +13 x#7#5 +7 x#7#4 +5 x#7#3 +13 x#7#2 +14 x#7#1
  <= 49
 b_capa_;8;:
  +16 x#8#48 +14 x#8#47 +16 x#8#46 +6 x#8#45 +13 x#8#44 +7 x#8#43
  +15 x#8#42 +9 x#8#41 +14 x#8#40 +13 x#8#39 +6 x#8#38 +9 x#8#37
  +14 x#8#36 +9 x#8#35 +11 x#8#34 +16 x#8#33 +10 x#8#32 +7 x#8#31
  +9 x#8#30 +13 x#8#29 +16 x#8#28 +5 x#8#27 +9 x#8#26 +7 x#8#25
  +15 x#8#24 +11 x#8#23 +11 x#8#22 +15 x#8#21 +8 x#8#20 +10 x#8#19
  +8 x#8#18 +6 x#8#17 +11 x#8#16 +9 x#8#15 +9 x#8#14 +7 x#8#13
  +9 x#8#12 +11 x#8#11 +6 x#8#10 +6 x#8#9 +16 x#8#8 +10 x#8#7
  +6 x#8#6 +5 x#8#5 +14 x#8#4 +8 x#8#3 +9 x#8#2 +13 x#8#1
  <= 49
Bounds
 0 <= x#1#1 <= 1
 0 <= x#1#2 <= 1
 0 <= x#1#3 <= 1
 0 <= x#1#4 <= 1
 0 <= x#1#5 <= 1
 0 <= x#1#6 <= 1
 0 <= x#1#7 <= 1
 0 <= x#1#8 <= 1
 0 <= x#1#9 <= 1
 0 <= x#1#10 <= 1
 0 <= x#1#11 <= 1
 0 <= x#1#12 <= 1
 0 <= x#1#13 <= 1
 0 <= x#1#14 <= 1
 0 <= x#1#15 <= 1
 0 <= x#1#16 <= 1
 0 <= x#1#17 <= 1
 0 <= x#1#18 <= 1
 0 <= x#1#19 <= 1
 0 <= x#1#20 <= 1
 0 <= x#1#21 <= 1
 0 <= x#1#22 <= 1
 0 <= x#1#23 <= 1
 0 <= x#1#24 <= 1
 0 <= x#1#25 <= 1
 0 <= x#1#26 <= 1
 0 <= x#1#27 <= 1
 0 <= x#1#28 <= 1
 0 <= x#1#29 <= 1
 0 <= x#1#30 <= 1
 0 <= x#1#31 <= 1
 0 <= x#1#32 <= 1
 0 <= x#1#33 <= 1
 0 <= x#1#34 <= 1
 0 <= x#1#35 <= 1
 0 <= x#1#36 <= 1
 0 <= x#1#37 <= 1
 0 <= x#1#38 <= 1
 0 <= x#1#39 <= 1
 0 <= x#1#40 <= 1
 0 <= x#1#41 <= 1
 0 <= x#1#42 <= 1
 0 <= x#1#43 <= 1
 0 <= x#1#44 <= 1
 0 <= x#1#45 <= 1
 0 <= x#1#46 <= 1
 0 <= x#1#47 <= 1
 0 <= x#1#48 <= 1
 0 <= x#2#1 <= 1
 0 <= x#2#2 <= 1
 0 <= x#2#3 <= 1
 0 <= x#2#4 <= 1
 0 <= x#2#5 <= 1
 0 <= x#2#6 <= 1
 0 <= x#2#7 <= 1
 0 <= x#2#8 <= 1
 0 <= x#2#9 <= 1
 0 <= x#2#10 <= 1
 0 <= x#2#11 <= 1
 0 <= x#2#12 <= 1
 0 <= x#2#13 <= 1
 0 <= x#2#14 <= 1
 0 <= x#2#15 <= 1
 0 <= x#2#16 <= 1
 0 <= x#2#17 <= 1
 0 <= x#2#18 <= 1
 0 <= x#2#19 <= 1
 0 <= x#2#20 <= 1
 0 <= x#2#21 <= 1
 0 <= x#2#22 <= 1
 0 <= x#2#23 <= 1
 0 <= x#2#24 <= 1
 0 <= x#2#25 <= 1
 0 <= x#2#26 <= 1
 0 <= x#2#27 <= 1
 0 <= x#2#28 <= 1
 0 <= x#2#29 <= 1
 0 <= x#2#30 <= 1
 0 <= x#2#31 <= 1
 0 <= x#2#32 <= 1
 0 <= x#2#33 <= 1
 0 <= x#2#34 <= 1
 0 <= x#2#35 <= 1
 0 <= x#2#36 <= 1
 0 <= x#2#37 <= 1
 0 <= x#2#38 <= 1
 0 <= x#2#39 <= 1
 0 <= x#2#40 <= 1
 0 <= x#2#41 <= 1
 0 <= x#2#42 <= 1
 0 <= x#2#43 <= 1
 0 <= x#2#44 <= 1
 0 <= x#2#45 <= 1
 0 <= x#2#46 <= 1
 0 <= x#2#47 <= 1
 0 <= x#2#48 <= 1
 0 <= x#3#1 <= 1
 0 <= x#3#2 <= 1
 0 <= x#3#3 <= 1
 0 <= x#3#4 <= 1
 0 <= x#3#5 <= 1
 0 <= x#3#6 <= 1
 0 <= x#3#7 <= 1
 0 <= x#3#8 <= 1
 0 <= x#3#9 <= 1
 0 <= x#3#10 <= 1
 0 <= x#3#11 <= 1
 0 <= x#3#12 <= 1
 0 <= x#3#13 <= 1
 0 <= x#3#14 <= 1
 0 <= x#3#15 <= 1
 0 <= x#3#16 <= 1
 0 <= x#3#17 <= 1
 0 <= x#3#18 <= 1
 0 <= x#3#19 <= 1
 0 <= x#3#20 <= 1
 0 <= x#3#21 <= 1
 0 <= x#3#22 <= 1
 0 <= x#3#23 <= 1
 0 <= x#3#24 <= 1
 0 <= x#3#25 <= 1
 0 <= x#3#26 <= 1
 0 <= x#3#27 <= 1
 0 <= x#3#28 <= 1
 0 <= x#3#29 <= 1
 0 <= x#3#30 <= 1
 0 <= x#3#31 <= 1
 0 <= x#3#32 <= 1
 0 <= x#3#33 <= 1
 0 <= x#3#34 <= 1
 0 <= x#3#35 <= 1
 0 <= x#3#36 <= 1
 0 <= x#3#37 <= 1
 0 <= x#3#38 <= 1
 0 <= x#3#39 <= 1
 0 <= x#3#40 <= 1
 0 <= x#3#41 <= 1
 0 <= x#3#42 <= 1
 0 <= x#3#43 <= 1
 0 <= x#3#44 <= 1
 0 <= x#3#45 <= 1
 0 <= x#3#46 <= 1
 0 <= x#3#47 <= 1
 0 <= x#3#48 <= 1
 0 <= x#4#1 <= 1
 0 <= x#4#2 <= 1
 0 <= x#4#3 <= 1
 0 <= x#4#4 <= 1
 0 <= x#4#5 <= 1
 0 <= x#4#6 <= 1
 0 <= x#4#7 <= 1
 0 <= x#4#8 <= 1
 0 <= x#4#9 <= 1
 0 <= x#4#10 <= 1
 0 <= x#4#11 <= 1
 0 <= x#4#12 <= 1
 0 <= x#4#13 <= 1
 0 <= x#4#14 <= 1
 0 <= x#4#15 <= 1
 0 <= x#4#16 <= 1
 0 <= x#4#17 <= 1
 0 <= x#4#18 <= 1
 0 <= x#4#19 <= 1
 0 <= x#4#20 <= 1
 0 <= x#4#21 <= 1
 0 <= x#4#22 <= 1
 0 <= x#4#23 <= 1
 0 <= x#4#24 <= 1
 0 <= x#4#25 <= 1
 0 <= x#4#26 <= 1
 0 <= x#4#27 <= 1
 0 <= x#4#28 <= 1
 0 <= x#4#29 <= 1
 0 <= x#4#30 <= 1
 0 <= x#4#31 <= 1
 0 <= x#4#32 <= 1
 0 <= x#4#33 <= 1
 0 <= x#4#34 <= 1
 0 <= x#4#35 <= 1
 0 <= x#4#36 <= 1
 0 <= x#4#37 <= 1
 0 <= x#4#38 <= 1
 0 <= x#4#39 <= 1
 0 <= x#4#40 <= 1
 0 <= x#4#41 <= 1
 0 <= x#4#42 <= 1
 0 <= x#4#43 <= 1
 0 <= x#4#44 <= 1
 0 <= x#4#45 <= 1
 0 <= x#4#46 <= 1
 0 <= x#4#47 <= 1
 0 <= x#4#48 <= 1
 0 <= x#5#1 <= 1
 0 <= x#5#2 <= 1
 0 <= x#5#3 <= 1
 0 <= x#5#4 <= 1
 0 <= x#5#5 <= 1
 0 <= x#5#6 <= 1
 0 <= x#5#7 <= 1
 0 <= x#5#8 <= 1
 0 <= x#5#9 <= 1
 0 <= x#5#10 <= 1
 0 <= x#5#11 <= 1
 0 <= x#5#12 <= 1
 0 <= x#5#13 <= 1
 0 <= x#5#14 <= 1
 0 <= x#5#15 <= 1
 0 <= x#5#16 <= 1
 0 <= x#5#17 <= 1
 0 <= x#5#18 <= 1
 0 <= x#5#19 <= 1
 0 <= x#5#20 <= 1
 0 <= x#5#21 <= 1
 0 <= x#5#22 <= 1
 0 <= x#5#23 <= 1
 0 <= x#5#24 <= 1
 0 <= x#5#25 <= 1
 0 <= x#5#26 <= 1
 0 <= x#5#27 <= 1
 0 <= x#5#28 <= 1
 0 <= x#5#29 <= 1
 0 <= x#5#30 <= 1
 0 <= x#5#31 <= 1
 0 <= x#5#32 <= 1
 0 <= x#5#33 <= 1
 0 <= x#5#34 <= 1
 0 <= x#5#35 <= 1
 0 <= x#5#36 <= 1
 0 <= x#5#37 <= 1
 0 <= x#5#38 <= 1
 0 <= x#5#39 <= 1
 0 <= x#5#40 <= 1
 0 <= x#5#41 <= 1
 0 <= x#5#42 <= 1
 0 <= x#5#43 <= 1
 0 <= x#5#44 <= 1
 0 <= x#5#45 <= 1
 0 <= x#5#46 <= 1
 0 <= x#5#47 <= 1
 0 <= x#5#48 <= 1
 0 <= x#6#1 <= 1
 0 <= x#6#2 <= 1
 0 <= x#6#3 <= 1
 0 <= x#6#4 <= 1
 0 <= x#6#5 <= 1
 0 <= x#6#6 <= 1
 0 <= x#6#7 <= 1
 0 <= x#6#8 <= 1
 0 <= x#6#9 <= 1
 0 <= x#6#10 <= 1
 0 <= x#6#11 <= 1
 0 <= x#6#12 <= 1
 0 <= x#6#13 <= 1
 0 <= x#6#14 <= 1
 0 <= x#6#15 <= 1
 0 <= x#6#16 <= 1
 0 <= x#6#17 <= 1
 0 <= x#6#18 <= 1
 0 <= x#6#19 <= 1
 0 <= x#6#20 <= 1
 0 <= x#6#21 <= 1
 0 <= x#6#22 <= 1
 0 <= x#6#23 <= 1
 0 <= x#6#24 <= 1
 0 <= x#6#25 <= 1
 0 <= x#6#26 <= 1
 0 <= x#6#27 <= 1
 0 <= x#6#28 <= 1
 0 <= x#6#29 <= 1
 0 <= x#6#30 <= 1
 0 <= x#6#31 <= 1
 0 <= x#6#32 <= 1
 0 <= x#6#33 <= 1
 0 <= x#6#34 <= 1
 0 <= x#6#35 <= 1
 0 <= x#6#36 <= 1
 0 <= x#6#37 <= 1
 0 <= x#6#38 <= 1
 0 <= x#6#39 <= 1
 0 <= x#6#40 <= 1
 0 <= x#6#41 <= 1
 0 <= x#6#42 <= 1
 0 <= x#6#43 <= 1
 0 <= x#6#44 <= 1
 0 <= x#6#45 <= 1
 0 <= x#6#46 <= 1
 0 <= x#6#47 <= 1
 0 <= x#6#48 <= 1
 0 <= x#7#1 <= 1
 0 <= x#7#2 <= 1
 0 <= x#7#3 <= 1
 0 <= x#7#4 <= 1
 0 <= x#7#5 <= 1
 0 <= x#7#6 <= 1
 0 <= x#7#7 <= 1
 0 <= x#7#8 <= 1
 0 <= x#7#9 <= 1
 0 <= x#7#10 <= 1
 0 <= x#7#11 <= 1
 0 <= x#7#12 <= 1
 0 <= x#7#13 <= 1
 0 <= x#7#14 <= 1
 0 <= x#7#15 <= 1
 0 <= x#7#16 <= 1
 0 <= x#7#17 <= 1
 0 <= x#7#18 <= 1
 0 <= x#7#19 <= 1
 0 <= x#7#20 <= 1
 0 <= x#7#21 <= 1
 0 <= x#7#22 <= 1
 0 <= x#7#23 <= 1
 0 <= x#7#24 <= 1
 0 <= x#7#25 <= 1
 0 <= x#7#26 <= 1
 0 <= x#7#27 <= 1
 0 <= x#7#28 <= 1
 0 <= x#7#29 <= 1
 0 <= x#7#30 <= 1
 0 <= x#7#31 <= 1
 0 <= x#7#32 <= 1
 0 <= x#7#33 <= 1
 0 <= x#7#34 <= 1
 0 <= x#7#35 <= 1
 0 <= x#7#36 <= 1
 0 <= x#7#37 <= 1
 0 <= x#7#38 <= 1
 0 <= x#7#39 <= 1
 0 <= x#7#40 <= 1
 0 <= x#7#41 <= 1
 0 <= x#7#42 <= 1
 0 <= x#7#43 <= 1
 0 <= x#7#44 <= 1
 0 <= x#7#45 <= 1
 0 <= x#7#46 <= 1
 0 <= x#7#47 <= 1
 0 <= x#7#48 <= 1
 0 <= x#8#1 <= 1
 0 <= x#8#2 <= 1
 0 <= x#8#3 <= 1
 0 <= x#8#4 <= 1
 0 <= x#8#5 <= 1
 0 <= x#8#6 <= 1
 0 <= x#8#7 <= 1
 0 <= x#8#8 <= 1
 0 <= x#8#9 <= 1
 0 <= x#8#10 <= 1
 0 <= x#8#11 <= 1
 0 <= x#8#12 <= 1
 0 <= x#8#13 <= 1
 0 <= x#8#14 <= 1
 0 <= x#8#15 <= 1
 0 <= x#8#16 <= 1
 0 <= x#8#17 <= 1
 0 <= x#8#18 <= 1
 0 <= x#8#19 <= 1
 0 <= x#8#20 <= 1
 0 <= x#8#21 <= 1
 0 <= x#8#22 <= 1
 0 <= x#8#23 <= 1
 0 <= x#8#24 <= 1
 0 <= x#8#25 <= 1
 0 <= x#8#26 <= 1
 0 <= x#8#27 <= 1
 0 <= x#8#28 <= 1
 0 <= x#8#29 <= 1
 0 <= x#8#30 <= 1
 0 <= x#8#31 <= 1
 0 <= x#8#32 <= 1
 0 <= x#8#33 <= 1
 0 <= x#8#34 <= 1
 0 <= x#8#35 <= 1
 0 <= x#8#36 <= 1
 0 <= x#8#37 <= 1
 0 <= x#8#38 <= 1
 0 <= x#8#39 <= 1
 0 <= x#8#40 <= 1
 0 <= x#8#41 <= 1
 0 <= x#8#42 <= 1
 0 <= x#8#43 <= 1
 0 <= x#8#44 <= 1
 0 <= x#8#45 <= 1
 0 <= x#8#46 <= 1
 0 <= x#8#47 <= 1
 0 <= x#8#48 <= 1
General
 x#1#1
 x#1#2
 x#1#3
 x#1#4
 x#1#5
 x#1#6
 x#1#7
 x#1#8
 x#1#9
 x#1#10
 x#1#11
 x#1#12
 x#1#13
 x#1#14
 x#1#15
 x#1#16
 x#1#17
 x#1#18
 x#1#19
 x#1#20
 x#1#21
 x#1#22
 x#1#23
 x#1#24
 x#1#25
 x#1#26
 x#1#27
 x#1#28
 x#1#29
 x#1#30
 x#1#31
 x#1#32
 x#1#33
 x#1#34
 x#1#35
 x#1#36
 x#1#37
 x#1#38
 x#1#39
 x#1#40
 x#1#41
 x#1#42
 x#1#43
 x#1#44
 x#1#45
 x#1#46
 x#1#47
 x#1#48
 x#2#1
 x#2#2
 x#2#3
 x#2#4
 x#2#5
 x#2#6
 x#2#7
 x#2#8
 x#2#9
 x#2#10
 x#2#11
 x#2#12
 x#2#13
 x#2#14
 x#2#15
 x#2#16
 x#2#17
 x#2#18
 x#2#19
 x#2#20
 x#2#21
 x#2#22
 x#2#23
 x#2#24
 x#2#25
 x#2#26
 x#2#27
 x#2#28
 x#2#29
 x#2#30
 x#2#31
 x#2#32
 x#2#33
 x#2#34
 x#2#35
 x#2#36
 x#2#37
 x#2#38
 x#2#39
 x#2#40
 x#2#41
 x#2#42
 x#2#43
 x#2#44
 x#2#45
 x#2#46
 x#2#47
 x#2#48
 x#3#1
 x#3#2
 x#3#3
 x#3#4
 x#3#5
 x#3#6
 x#3#7
 x#3#8
 x#3#9
 x#3#10
 x#3#11
 x#3#12
 x#3#13
 x#3#14
 x#3#15
 x#3#16
 x#3#17
 x#3#18
 x#3#19
 x#3#20
 x#3#21
 x#3#22
 x#3#23
 x#3#24
 x#3#25
 x#3#26
 x#3#27
 x#3#28
 x#3#29
 x#3#30
 x#3#31
 x#3#32
 x#3#33
 x#3#34
 x#3#35
 x#3#36
 x#3#37
 x#3#38
 x#3#39
 x#3#40
 x#3#41
 x#3#42
 x#3#43
 x#3#44
 x#3#45
 x#3#46
 x#3#47
 x#3#48
 x#4#1
 x#4#2
 x#4#3
 x#4#4
 x#4#5
 x#4#6
 x#4#7
 x#4#8
 x#4#9
 x#4#10
 x#4#11
 x#4#12
 x#4#13
 x#4#14
 x#4#15
 x#4#16
 x#4#17
 x#4#18
 x#4#19
 x#4#20
 x#4#21
 x#4#22
 x#4#23
 x#4#24
 x#4#25
 x#4#26
 x#4#27
 x#4#28
 x#4#29
 x#4#30
 x#4#31
 x#4#32
 x#4#33
 x#4#34
 x#4#35
 x#4#36
 x#4#37
 x#4#38
 x#4#39
 x#4#40
 x#4#41
 x#4#42
 x#4#43
 x#4#44
 x#4#45
 x#4#46
 x#4#47
 x#4#48
 x#5#1
 x#5#2
 x#5#3
 x#5#4
 x#5#5
 x#5#6
 x#5#7
 x#5#8
 x#5#9
 x#5#10
 x#5#11
 x#5#12
 x#5#13
 x#5#14
 x#5#15
 x#5#16
 x#5#17
 x#5#18
 x#5#19
 x#5#20
 x#5#21
 x#5#22
 x#5#23
 x#5#24
 x#5#25
 x#5#26
 x#5#27
 x#5#28
 x#5#29
 x#5#30
 x#5#31
 x#5#32
 x#5#33
 x#5#34
 x#5#35
 x#5#36
 x#5#37
 x#5#38
 x#5#39
 x#5#40
 x#5#41
 x#5#42
 x#5#43
 x#5#44
 x#5#45
 x#5#46
 x#5#47
 x#5#48
 x#6#1
 x#6#2
 x#6#3
 x#6#4
 x#6#5
 x#6#6
 x#6#7
 x#6#8
 x#6#9
 x#6#10
 x#6#11
 x#6#12
 x#6#13
 x#6#14
 x#6#15
 x#6#16
 x#6#17
 x#6#18
 x#6#19
 x#6#20
 x#6#21
 x#6#22
 x#6#23
 x#6#24
 x#6#25
 x#6#26
 x#6#27
 x#6#28
 x#6#29
 x#6#30
 x#6#31
 x#6#32
 x#6#33
 x#6#34
 x#6#35
 x#6#36
 x#6#37
 x#6#38
 x#6#39
 x#6#40
 x#6#41
 x#6#42
 x#6#43
 x#6#44
 x#6#45
 x#6#46
 x#6#47
 x#6#48
 x#7#1
 x#7#2
 x#7#3
 x#7#4
 x#7#5
 x#7#6
 x#7#7
 x#7#8
 x#7#9
 x#7#10
 x#7#11
 x#7#12
 x#7#13
 x#7#14
 x#7#15
 x#7#16
 x#7#17
 x#7#18
 x#7#19
 x#7#20
 x#7#21
 x#7#22
 x#7#23
 x#7#24
 x#7#25
 x#7#26
 x#7#27
 x#7#28
 x#7#29
 x#7#30
 x#7#31
 x#7#32
 x#7#33
 x#7#34
 x#7#35
 x#7#36
 x#7#37
 x#7#38
 x#7#39
 x#7#40
 x#7#41
 x#7#42
 x#7#43
 x#7#44
 x#7#45
 x#7#46
 x#7#47
 x#7#48
 x#8#1
 x#8#2
 x#8#3
 x#8#4
 x#8#5
 x#8#6
 x#8#7
 x#8#8
 x#8#9
 x#8#10
 x#8#11
 x#8#12
 x#8#13
 x#8#14
 x#8#15
 x#8#16
 x#8#17
 x#8#18
 x#8#19
 x#8#20
 x#8#21
 x#8#22
 x#8#23
 x#8#24
 x#8#25
 x#8#26
 x#8#27
 x#8#28
 x#8#29
 x#8#30
 x#8#31
 x#8#32
 x#8#33
 x#8#34
 x#8#35
 x#8#36
 x#8#37
 x#8#38
 x#8#39
 x#8#40
 x#8#41
 x#8#42
 x#8#43
 x#8#44
 x#8#45
 x#8#46
 x#8#47
 x#8#48
End
